Solver command line: ['/opt/gurobi951/linux64/bin/gurobi.sh']

Set parameter Username
Academic license - for non-commercial use only - expires 2022-05-23
Read LP format model from file /tmp/tmpgrn1ntny.pyomo.lp
Reading time = 2.00 seconds
x1051207: 1051205 rows, 700807 columns, 2755742 nonzeros
Read MIP start from file /tmp/tmp6fg04j65.gurobi.mst
Set parameter TimeLimit to value 300000
Set parameter MIPGap to value 0.008
Gurobi Optimizer version 9.5.1 build v9.5.1rc2 (linux64)
Thread count: 16 physical cores, 32 logical processors, using up to 32 threads
Optimize a model with 1051205 rows, 700807 columns and 2755742 nonzeros
Model fingerprint: 0xb5be8bdb
Variable types: 525605 continuous, 175202 integer (0 binary)
Coefficient statistics:
  Matrix range     [1e-02, 1e+02]
  Objective range  [6e-03, 5e+04]
  Bounds range     [2e+00, 1e+03]
  RHS range        [1e+00, 4e+02]

Warning: Completing partial solution with 175200 unfixed non-continuous variables out of 175202
Processing user MIP start: 0 nodes explored in subMIP, total elapsed time 5s
Processing user MIP start: 0 nodes explored in subMIP, total elapsed time 11s
Processing user MIP start: 0 nodes explored in subMIP, total elapsed time 17s
Processing user MIP start: 0 nodes explored in subMIP, total elapsed time 20s
Processing user MIP start: 0 nodes explored in subMIP, total elapsed time 25s
Processing user MIP start: 0 nodes explored in subMIP, total elapsed time 31s
Processing user MIP start: 0 nodes explored in subMIP, total elapsed time 36s
Processing user MIP start: 0 nodes explored in subMIP, total elapsed time 41s
Processing user MIP start: 0 nodes explored in subMIP, total elapsed time 46s
Processing user MIP start: 0 nodes explored in subMIP, total elapsed time 50s
Processing user MIP start: 0 nodes explored in subMIP, total elapsed time 57s
Processing user MIP start: 0 nodes explored in subMIP, total elapsed time 62s
Processing user MIP start: 0 nodes explored in subMIP, total elapsed time 66s
Processing user MIP start: 0 nodes explored in subMIP, total elapsed time 71s
Processing user MIP start: 0 nodes explored in subMIP, total elapsed time 76s
Processing user MIP start: 0 nodes explored in subMIP, total elapsed time 81s
Processing user MIP start: 0 nodes explored in subMIP, total elapsed time 86s
Processing user MIP start: 0 nodes explored in subMIP, total elapsed time 91s
Processing user MIP start: 0 nodes explored in subMIP, total elapsed time 97s
Processing user MIP start: 0 nodes explored in subMIP, total elapsed time 101s
Processing user MIP start: 0 nodes explored in subMIP, total elapsed time 107s
Processing user MIP start: 0 nodes explored in subMIP, total elapsed time 112s
Processing user MIP start: 0 nodes explored in subMIP, total elapsed time 116s
Processing user MIP start: 0 nodes explored in subMIP, total elapsed time 121s
Processing user MIP start: 0 nodes explored in subMIP, total elapsed time 126s
Processing user MIP start: 0 nodes explored in subMIP, total elapsed time 131s
Processing user MIP start: 0 nodes explored in subMIP, total elapsed time 136s
Processing user MIP start: 0 nodes explored in subMIP, total elapsed time 140s
Processing user MIP start: 0 nodes explored in subMIP, total elapsed time 146s
Processing user MIP start: 0 nodes explored in subMIP, total elapsed time 151s
Processing user MIP start: 0 nodes explored in subMIP, total elapsed time 155s
Processing user MIP start: 0 nodes explored in subMIP, total elapsed time 161s
Processing user MIP start: 0 nodes explored in subMIP, total elapsed time 165s
Processing user MIP start: 0 nodes explored in subMIP, total elapsed time 171s
Processing user MIP start: 0 nodes explored in subMIP, total elapsed time 177s
Processing user MIP start: 0 nodes explored in subMIP, total elapsed time 180s
Processing user MIP start: 0 nodes explored in subMIP, total elapsed time 186s
Processing user MIP start: 0 nodes explored in subMIP, total elapsed time 191s
Processing user MIP start: 0 nodes explored in subMIP, total elapsed time 195s
Processing user MIP start: 0 nodes explored in subMIP, total elapsed time 201s
Processing user MIP start: 0 nodes explored in subMIP, total elapsed time 206s
Processing user MIP start: 0 nodes explored in subMIP, total elapsed time 211s
Processing user MIP start: 0 nodes explored in subMIP, total elapsed time 216s
Processing user MIP start: 0 nodes explored in subMIP, total elapsed time 220s
Processing user MIP start: 0 nodes explored in subMIP, total elapsed time 226s
Processing user MIP start: 0 nodes explored in subMIP, total elapsed time 231s
Processing user MIP start: 0 nodes explored in subMIP, total elapsed time 236s
Processing user MIP start: 0 nodes explored in subMIP, total elapsed time 241s
Processing user MIP start: 0 nodes explored in subMIP, total elapsed time 246s
Processing user MIP start: 0 nodes explored in subMIP, total elapsed time 252s
Processing user MIP start: 0 nodes explored in subMIP, total elapsed time 257s
Processing user MIP start: 0 nodes explored in subMIP, total elapsed time 260s
Processing user MIP start: 0 nodes explored in subMIP, total elapsed time 265s
Processing user MIP start: 0 nodes explored in subMIP, total elapsed time 270s
Processing user MIP start: 0 nodes explored in subMIP, total elapsed time 275s
Processing user MIP start: 0 nodes explored in subMIP, total elapsed time 282s
Processing user MIP start: 0 nodes explored in subMIP, total elapsed time 286s
Processing user MIP start: 0 nodes explored in subMIP, total elapsed time 291s
Processing user MIP start: 0 nodes explored in subMIP, total elapsed time 296s
Processing user MIP start: 0 nodes explored in subMIP, total elapsed time 300s
Processing user MIP start: 0 nodes explored in subMIP, total elapsed time 305s
Processing user MIP start: 0 nodes explored in subMIP, total elapsed time 311s
Processing user MIP start: 0 nodes explored in subMIP, total elapsed time 315s
Processing user MIP start: 0 nodes explored in subMIP, total elapsed time 322s
Processing user MIP start: 0 nodes explored in subMIP, total elapsed time 328s
Processing user MIP start: 0 nodes explored in subMIP, total elapsed time 331s
Processing user MIP start: 0 nodes explored in subMIP, total elapsed time 337s
Processing user MIP start: 0 nodes explored in subMIP, total elapsed time 344s
Processing user MIP start: 0 nodes explored in subMIP, total elapsed time 347s
Processing user MIP start: 0 nodes explored in subMIP, total elapsed time 354s
Processing user MIP start: 0 nodes explored in subMIP, total elapsed time 357s
Processing user MIP start: 0 nodes explored in subMIP, total elapsed time 361s
Processing user MIP start: 0 nodes explored in subMIP, total elapsed time 368s
Processing user MIP start: 0 nodes explored in subMIP, total elapsed time 371s
Processing user MIP start: 0 nodes explored in subMIP, total elapsed time 378s
Processing user MIP start: 0 nodes explored in subMIP, total elapsed time 382s
Processing user MIP start: 0 nodes explored in subMIP, total elapsed time 385s
Processing user MIP start: 0 nodes explored in subMIP, total elapsed time 392s
Processing user MIP start: 0 nodes explored in subMIP, total elapsed time 396s
Processing user MIP start: 0 nodes explored in subMIP, total elapsed time 404s
Processing user MIP start: 0 nodes explored in subMIP, total elapsed time 407s
Processing user MIP start: 0 nodes explored in subMIP, total elapsed time 411s
Processing user MIP start: 0 nodes explored in subMIP, total elapsed time 415s
Processing user MIP start: 0 nodes explored in subMIP, total elapsed time 423s
Processing user MIP start: 0 nodes explored in subMIP, total elapsed time 426s
Processing user MIP start: 0 nodes explored in subMIP, total elapsed time 430s
Processing user MIP start: 0 nodes explored in subMIP, total elapsed time 438s
Processing user MIP start: 0 nodes explored in subMIP, total elapsed time 441s
Processing user MIP start: 0 nodes explored in subMIP, total elapsed time 445s
Processing user MIP start: 0 nodes explored in subMIP, total elapsed time 453s
Processing user MIP start: 0 nodes explored in subMIP, total elapsed time 456s
Processing user MIP start: 0 nodes explored in subMIP, total elapsed time 464s
Processing user MIP start: 0 nodes explored in subMIP, total elapsed time 468s
Processing user MIP start: 0 nodes explored in subMIP, total elapsed time 472s
Processing user MIP start: 0 nodes explored in subMIP, total elapsed time 475s
Processing user MIP start: 0 nodes explored in subMIP, total elapsed time 499s
Processing user MIP start: 0 nodes explored in subMIP, total elapsed time 511s
Processing user MIP start: 0 nodes explored in subMIP, total elapsed time 519s
Processing user MIP start: 0 nodes explored in subMIP, total elapsed time 521s
Processing user MIP start: 0 nodes explored in subMIP, total elapsed time 526s
Processing user MIP start: 0 nodes explored in subMIP, total elapsed time 535s
Processing user MIP start: 0 nodes explored in subMIP, total elapsed time 536s
Processing user MIP start: 0 nodes explored in subMIP, total elapsed time 541s
Processing user MIP start: 0 nodes explored in subMIP, total elapsed time 545s
Processing user MIP start: 0 nodes explored in subMIP, total elapsed time 550s
Processing user MIP start: 0 nodes explored in subMIP, total elapsed time 555s
Processing user MIP start: 0 nodes explored in subMIP, total elapsed time 560s
Processing user MIP start: 0 nodes explored in subMIP, total elapsed time 565s
Processing user MIP start: 0 nodes explored in subMIP, total elapsed time 570s
Processing user MIP start: 0 nodes explored in subMIP, total elapsed time 575s
Processing user MIP start: 0 nodes explored in subMIP, total elapsed time 580s
Processing user MIP start: 0 nodes explored in subMIP, total elapsed time 585s
Processing user MIP start: 0 nodes explored in subMIP, total elapsed time 590s
Processing user MIP start: 0 nodes explored in subMIP, total elapsed time 595s
Processing user MIP start: 0 nodes explored in subMIP, total elapsed time 600s
Processing user MIP start: 0 nodes explored in subMIP, total elapsed time 605s
Processing user MIP start: 0 nodes explored in subMIP, total elapsed time 610s
Processing user MIP start: 0 nodes explored in subMIP, total elapsed time 615s
Processing user MIP start: 0 nodes explored in subMIP, total elapsed time 620s
Processing user MIP start: 0 nodes explored in subMIP, total elapsed time 625s
Processing user MIP start: 0 nodes explored in subMIP, total elapsed time 630s
Processing user MIP start: 0 nodes explored in subMIP, total elapsed time 635s
Processing user MIP start: 0 nodes explored in subMIP, total elapsed time 640s
Processing user MIP start: 0 nodes explored in subMIP, total elapsed time 645s
Processing user MIP start: 0 nodes explored in subMIP, total elapsed time 650s
Processing user MIP start: 0 nodes explored in subMIP, total elapsed time 655s
Processing user MIP start: 0 nodes explored in subMIP, total elapsed time 660s
Processing user MIP start: 0 nodes explored in subMIP, total elapsed time 665s
Processing user MIP start: 0 nodes explored in subMIP, total elapsed time 670s
Processing user MIP start: 0 nodes explored in subMIP, total elapsed time 675s
Processing user MIP start: 0 nodes explored in subMIP, total elapsed time 680s
Processing user MIP start: 0 nodes explored in subMIP, total elapsed time 685s
Processing user MIP start: 0 nodes explored in subMIP, total elapsed time 690s
Processing user MIP start: 0 nodes explored in subMIP, total elapsed time 695s
Processing user MIP start: 0 nodes explored in subMIP, total elapsed time 700s
Processing user MIP start: 0 nodes explored in subMIP, total elapsed time 705s
Processing user MIP start: 0 nodes explored in subMIP, total elapsed time 710s
Processing user MIP start: 0 nodes explored in subMIP, total elapsed time 715s
Processing user MIP start: 0 nodes explored in subMIP, total elapsed time 720s
Processing user MIP start: 0 nodes explored in subMIP, total elapsed time 725s
Processing user MIP start: 0 nodes explored in subMIP, total elapsed time 730s
Processing user MIP start: 0 nodes explored in subMIP, total elapsed time 735s
Processing user MIP start: 0 nodes explored in subMIP, total elapsed time 740s
Processing user MIP start: 0 nodes explored in subMIP, total elapsed time 745s
Processing user MIP start: 0 nodes explored in subMIP, total elapsed time 750s
Processing user MIP start: 0 nodes explored in subMIP, total elapsed time 755s
Processing user MIP start: 0 nodes explored in subMIP, total elapsed time 760s
Processing user MIP start: 0 nodes explored in subMIP, total elapsed time 765s
Processing user MIP start: 0 nodes explored in subMIP, total elapsed time 770s
Processing user MIP start: 0 nodes explored in subMIP, total elapsed time 775s
Processing user MIP start: 0 nodes explored in subMIP, total elapsed time 780s
Processing user MIP start: 0 nodes explored in subMIP, total elapsed time 785s
Processing user MIP start: 0 nodes explored in subMIP, total elapsed time 790s
Processing user MIP start: 0 nodes explored in subMIP, total elapsed time 795s
Processing user MIP start: 0 nodes explored in subMIP, total elapsed time 800s
User MIP start produced solution with objective 416948 (803.82s)
Processing user MIP start: 0 nodes explored in subMIP, total elapsed time 805s
Processing user MIP start: 0 nodes explored in subMIP, total elapsed time 815s
Processing user MIP start: 0 nodes explored in subMIP, total elapsed time 820s
Processing user MIP start: 0 nodes explored in subMIP, total elapsed time 827s
Processing user MIP start: 0 nodes explored in subMIP, total elapsed time 834s
Processing user MIP start: 0 nodes explored in subMIP, total elapsed time 840s
Processing user MIP start: 0 nodes explored in subMIP, total elapsed time 850s
Processing user MIP start: 0 nodes explored in subMIP, total elapsed time 858s
Processing user MIP start: 0 nodes explored in subMIP, total elapsed time 864s
Processing user MIP start: 0 nodes explored in subMIP, total elapsed time 872s
Processing user MIP start: 0 nodes explored in subMIP, total elapsed time 876s
Processing user MIP start: 0 nodes explored in subMIP, total elapsed time 883s
Processing user MIP start: 0 nodes explored in subMIP, total elapsed time 887s
Processing user MIP start: 0 nodes explored in subMIP, total elapsed time 897s
Processing user MIP start: 0 nodes explored in subMIP, total elapsed time 902s
Processing user MIP start: 0 nodes explored in subMIP, total elapsed time 906s
Processing user MIP start: 0 nodes explored in subMIP, total elapsed time 911s
Processing user MIP start: 0 nodes explored in subMIP, total elapsed time 915s
Processing user MIP start: 0 nodes explored in subMIP, total elapsed time 923s
Processing user MIP start: 0 nodes explored in subMIP, total elapsed time 926s
Processing user MIP start: 0 nodes explored in subMIP, total elapsed time 930s
Processing user MIP start: 0 nodes explored in subMIP, total elapsed time 935s
Processing user MIP start: 0 nodes explored in subMIP, total elapsed time 940s
Processing user MIP start: 0 nodes explored in subMIP, total elapsed time 945s
Processing user MIP start: 0 nodes explored in subMIP, total elapsed time 950s
Processing user MIP start: 0 nodes explored in subMIP, total elapsed time 955s
Processing user MIP start: 0 nodes explored in subMIP, total elapsed time 960s
Processing user MIP start: 0 nodes explored in subMIP, total elapsed time 965s
Processing user MIP start: 0 nodes explored in subMIP, total elapsed time 970s
Processing user MIP start: 0 nodes explored in subMIP, total elapsed time 975s
Processing user MIP start: 0 nodes explored in subMIP, total elapsed time 980s
Processing user MIP start: 0 nodes explored in subMIP, total elapsed time 985s
Processing user MIP start: 0 nodes explored in subMIP, total elapsed time 990s
Processing user MIP start: 0 nodes explored in subMIP, total elapsed time 995s
Processing user MIP start: 0 nodes explored in subMIP, total elapsed time 1000s
Processing user MIP start: 0 nodes explored in subMIP, total elapsed time 1005s
Processing user MIP start: 0 nodes explored in subMIP, total elapsed time 1010s
Processing user MIP start: 0 nodes explored in subMIP, total elapsed time 1015s
Processing user MIP start: 0 nodes explored in subMIP, total elapsed time 1020s
Processing user MIP start: 0 nodes explored in subMIP, total elapsed time 1025s
Processing user MIP start: 0 nodes explored in subMIP, total elapsed time 1030s
Processing user MIP start: 0 nodes explored in subMIP, total elapsed time 1035s
Processing user MIP start: 0 nodes explored in subMIP, total elapsed time 1040s
Processing user MIP start: 0 nodes explored in subMIP, total elapsed time 1045s
Processing user MIP start: 0 nodes explored in subMIP, total elapsed time 1050s
Processing user MIP start: 0 nodes explored in subMIP, total elapsed time 1055s
Processing user MIP start: 0 nodes explored in subMIP, total elapsed time 1060s
Processing user MIP start: 0 nodes explored in subMIP, total elapsed time 1065s
Processing user MIP start: 0 nodes explored in subMIP, total elapsed time 1070s
Processing user MIP start: 0 nodes explored in subMIP, total elapsed time 1075s
Processing user MIP start: 0 nodes explored in subMIP, total elapsed time 1080s
Processing user MIP start: 0 nodes explored in subMIP, total elapsed time 1085s
Processing user MIP start: 0 nodes explored in subMIP, total elapsed time 1090s
Processing user MIP start: 0 nodes explored in subMIP, total elapsed time 1095s
Processing user MIP start: 0 nodes explored in subMIP, total elapsed time 1100s
Processing user MIP start: 0 nodes explored in subMIP, total elapsed time 1105s
Processing user MIP start: 0 nodes explored in subMIP, total elapsed time 1110s
Processing user MIP start: 0 nodes explored in subMIP, total elapsed time 1115s
Processing user MIP start: 0 nodes explored in subMIP, total elapsed time 1120s
Processing user MIP start: 0 nodes explored in subMIP, total elapsed time 1125s
Processing user MIP start: 0 nodes explored in subMIP, total elapsed time 1130s
Processing user MIP start: 0 nodes explored in subMIP, total elapsed time 1135s
Processing user MIP start: 0 nodes explored in subMIP, total elapsed time 1142s
Processing user MIP start: 0 nodes explored in subMIP, total elapsed time 1146s
Processing user MIP start: 0 nodes explored in subMIP, total elapsed time 1152s
Processing user MIP start: 0 nodes explored in subMIP, total elapsed time 1155s
Processing user MIP start: 0 nodes explored in subMIP, total elapsed time 1160s
Processing user MIP start: 0 nodes explored in subMIP, total elapsed time 1165s
Processing user MIP start: 0 nodes explored in subMIP, total elapsed time 1176s
Processing user MIP start: 0 nodes explored in subMIP, total elapsed time 1180s
Processing user MIP start: 0 nodes explored in subMIP, total elapsed time 1186s
Processing user MIP start: 0 nodes explored in subMIP, total elapsed time 1191s
Processing user MIP start: 0 nodes explored in subMIP, total elapsed time 1197s
Processing user MIP start: 0 nodes explored in subMIP, total elapsed time 1202s
Processing user MIP start: 0 nodes explored in subMIP, total elapsed time 1207s
Processing user MIP start: 0 nodes explored in subMIP, total elapsed time 1210s
Processing user MIP start: 0 nodes explored in subMIP, total elapsed time 1216s
Processing user MIP start: 0 nodes explored in subMIP, total elapsed time 1223s
Processing user MIP start: 0 nodes explored in subMIP, total elapsed time 1227s
Processing user MIP start: 0 nodes explored in subMIP, total elapsed time 1231s
Processing user MIP start: 0 nodes explored in subMIP, total elapsed time 1236s
Processing user MIP start: 0 nodes explored in subMIP, total elapsed time 1240s
Processing user MIP start: 0 nodes explored in subMIP, total elapsed time 1245s
Processing user MIP start: 0 nodes explored in subMIP, total elapsed time 1250s
Processing user MIP start: 0 nodes explored in subMIP, total elapsed time 1255s
Processing user MIP start: 0 nodes explored in subMIP, total elapsed time 1260s
Processing user MIP start: 0 nodes explored in subMIP, total elapsed time 1265s
Processing user MIP start: 0 nodes explored in subMIP, total elapsed time 1273s
Processing user MIP start: 0 nodes explored in subMIP, total elapsed time 1279s
Processing user MIP start: 0 nodes explored in subMIP, total elapsed time 1283s
Processing user MIP start: 0 nodes explored in subMIP, total elapsed time 1287s
Processing user MIP start: 0 nodes explored in subMIP, total elapsed time 1290s
Processing user MIP start: 0 nodes explored in subMIP, total elapsed time 1297s
Processing user MIP start: 0 nodes explored in subMIP, total elapsed time 1300s
Processing user MIP start: 0 nodes explored in subMIP, total elapsed time 1308s
Processing user MIP start: 0 nodes explored in subMIP, total elapsed time 1313s
Processing user MIP start: 0 nodes explored in subMIP, total elapsed time 1318s
Processing user MIP start: 0 nodes explored in subMIP, total elapsed time 1323s
Processing user MIP start: 0 nodes explored in subMIP, total elapsed time 1325s
Processing user MIP start: 0 nodes explored in subMIP, total elapsed time 1330s
Processing user MIP start: 0 nodes explored in subMIP, total elapsed time 1336s
Processing user MIP start: 0 nodes explored in subMIP, total elapsed time 1340s
Processing user MIP start: 0 nodes explored in subMIP, total elapsed time 1345s
Processing user MIP start: 0 nodes explored in subMIP, total elapsed time 1352s
Processing user MIP start: 0 nodes explored in subMIP, total elapsed time 1355s
Processing user MIP start: 0 nodes explored in subMIP, total elapsed time 1361s
Processing user MIP start: 0 nodes explored in subMIP, total elapsed time 1368s
Processing user MIP start: 0 nodes explored in subMIP, total elapsed time 1370s
Processing user MIP start: 0 nodes explored in subMIP, total elapsed time 1375s
Processing user MIP start: 0 nodes explored in subMIP, total elapsed time 1380s
Processing user MIP start: 0 nodes explored in subMIP, total elapsed time 1386s
Processing user MIP start: 0 nodes explored in subMIP, total elapsed time 1390s
Processing user MIP start: 0 nodes explored in subMIP, total elapsed time 1395s
Processing user MIP start: 0 nodes explored in subMIP, total elapsed time 1400s
Processing user MIP start: 0 nodes explored in subMIP, total elapsed time 1405s
Processing user MIP start: 0 nodes explored in subMIP, total elapsed time 1410s
Processing user MIP start: 0 nodes explored in subMIP, total elapsed time 1416s
Processing user MIP start: 0 nodes explored in subMIP, total elapsed time 1421s
Processing user MIP start: 0 nodes explored in subMIP, total elapsed time 1425s
Processing user MIP start: 0 nodes explored in subMIP, total elapsed time 1431s
Processing user MIP start: 0 nodes explored in subMIP, total elapsed time 1435s
Processing user MIP start: 0 nodes explored in subMIP, total elapsed time 1441s
Processing user MIP start: 0 nodes explored in subMIP, total elapsed time 1447s
Processing user MIP start: 0 nodes explored in subMIP, total elapsed time 1450s
Processing user MIP start: 0 nodes explored in subMIP, total elapsed time 1455s
Processing user MIP start: 0 nodes explored in subMIP, total elapsed time 1460s
Processing user MIP start: 0 nodes explored in subMIP, total elapsed time 1465s
Processing user MIP start: 0 nodes explored in subMIP, total elapsed time 1473s
Processing user MIP start: 0 nodes explored in subMIP, total elapsed time 1476s
Processing user MIP start: 0 nodes explored in subMIP, total elapsed time 1480s
Processing user MIP start: 0 nodes explored in subMIP, total elapsed time 1485s
Processing user MIP start: 0 nodes explored in subMIP, total elapsed time 1490s
Processing user MIP start: 0 nodes explored in subMIP, total elapsed time 1495s
Processing user MIP start: 0 nodes explored in subMIP, total elapsed time 1500s
Processing user MIP start: 0 nodes explored in subMIP, total elapsed time 1505s
Processing user MIP start: 0 nodes explored in subMIP, total elapsed time 1510s
Processing user MIP start: 0 nodes explored in subMIP, total elapsed time 1515s
Processing user MIP start: 0 nodes explored in subMIP, total elapsed time 1522s
Processing user MIP start: 0 nodes explored in subMIP, total elapsed time 1525s
Processing user MIP start: 0 nodes explored in subMIP, total elapsed time 1530s
Processing user MIP start: 0 nodes explored in subMIP, total elapsed time 1536s
Processing user MIP start: 0 nodes explored in subMIP, total elapsed time 1551s
Processing user MIP start: 0 nodes explored in subMIP, total elapsed time 1561s
Processing user MIP start: 0 nodes explored in subMIP, total elapsed time 1586s
Processing user MIP start: 0 nodes explored in subMIP, total elapsed time 1593s
Processing user MIP start: 0 nodes explored in subMIP, total elapsed time 1595s
Processing user MIP start: 0 nodes explored in subMIP, total elapsed time 1601s
Processing user MIP start: 0 nodes explored in subMIP, total elapsed time 1607s
Processing user MIP start: 0 nodes explored in subMIP, total elapsed time 1610s
Processing user MIP start: 0 nodes explored in subMIP, total elapsed time 1616s
Processing user MIP start: 0 nodes explored in subMIP, total elapsed time 1620s
Processing user MIP start: 0 nodes explored in subMIP, total elapsed time 1625s
Processing user MIP start: 0 nodes explored in subMIP, total elapsed time 1630s
Processing user MIP start: 0 nodes explored in subMIP, total elapsed time 1635s
Processing user MIP start: 0 nodes explored in subMIP, total elapsed time 1640s
Processing user MIP start: 0 nodes explored in subMIP, total elapsed time 1645s
Processing user MIP start: 0 nodes explored in subMIP, total elapsed time 1652s
Processing user MIP start: 0 nodes explored in subMIP, total elapsed time 1664s
Processing user MIP start: 0 nodes explored in subMIP, total elapsed time 1666s
Processing user MIP start: 0 nodes explored in subMIP, total elapsed time 1671s
Processing user MIP start: 0 nodes explored in subMIP, total elapsed time 1675s
Processing user MIP start: 0 nodes explored in subMIP, total elapsed time 1680s
Processing user MIP start: 0 nodes explored in subMIP, total elapsed time 1685s
Processing user MIP start: 0 nodes explored in subMIP, total elapsed time 1694s
Processing user MIP start: 0 nodes explored in subMIP, total elapsed time 1695s
Processing user MIP start: 0 nodes explored in subMIP, total elapsed time 1701s
Processing user MIP start: 0 nodes explored in subMIP, total elapsed time 1705s
Processing user MIP start: 25 nodes explored in subMIP, total elapsed time 1710s
Processing user MIP start: 26 nodes explored in subMIP, total elapsed time 1715s
Processing user MIP start: 26 nodes explored in subMIP, total elapsed time 1720s
Processing user MIP start: 46 nodes explored in subMIP, total elapsed time 1725s
Processing user MIP start: 52 nodes explored in subMIP, total elapsed time 1730s
Processing user MIP start: 53 nodes explored in subMIP, total elapsed time 1735s
Processing user MIP start: 60 nodes explored in subMIP, total elapsed time 1740s
Processing user MIP start: 74 nodes explored in subMIP, total elapsed time 1745s
Processing user MIP start: 80 nodes explored in subMIP, total elapsed time 1750s
Processing user MIP start: 80 nodes explored in subMIP, total elapsed time 1755s
Processing user MIP start: 80 nodes explored in subMIP, total elapsed time 1760s
Processing user MIP start: 102 nodes explored in subMIP, total elapsed time 1765s
Processing user MIP start: 107 nodes explored in subMIP, total elapsed time 1770s
Processing user MIP start: 107 nodes explored in subMIP, total elapsed time 1775s
Processing user MIP start: 107 nodes explored in subMIP, total elapsed time 1780s
Processing user MIP start: 131 nodes explored in subMIP, total elapsed time 1785s
Processing user MIP start: 134 nodes explored in subMIP, total elapsed time 1790s
Processing user MIP start: 134 nodes explored in subMIP, total elapsed time 1795s
Processing user MIP start: 156 nodes explored in subMIP, total elapsed time 1800s
Processing user MIP start: 161 nodes explored in subMIP, total elapsed time 1805s
Processing user MIP start: 161 nodes explored in subMIP, total elapsed time 1810s
Processing user MIP start: 174 nodes explored in subMIP, total elapsed time 1815s
Processing user MIP start: 188 nodes explored in subMIP, total elapsed time 1820s
Processing user MIP start: 188 nodes explored in subMIP, total elapsed time 1825s
Processing user MIP start: 188 nodes explored in subMIP, total elapsed time 1830s
Processing user MIP start: 209 nodes explored in subMIP, total elapsed time 1835s
Processing user MIP start: 215 nodes explored in subMIP, total elapsed time 1840s
Processing user MIP start: 215 nodes explored in subMIP, total elapsed time 1845s
Processing user MIP start: 231 nodes explored in subMIP, total elapsed time 1850s
Processing user MIP start: 237 nodes explored in subMIP, total elapsed time 1855s
Processing user MIP start: 242 nodes explored in subMIP, total elapsed time 1860s
Processing user MIP start: 242 nodes explored in subMIP, total elapsed time 1865s
Processing user MIP start: 243 nodes explored in subMIP, total elapsed time 1870s
Processing user MIP start: 253 nodes explored in subMIP, total elapsed time 1875s
Processing user MIP start: 266 nodes explored in subMIP, total elapsed time 1880s
Processing user MIP start: 269 nodes explored in subMIP, total elapsed time 1885s
Processing user MIP start: 269 nodes explored in subMIP, total elapsed time 1890s
Processing user MIP start: 283 nodes explored in subMIP, total elapsed time 1895s
Processing user MIP start: 303 nodes explored in subMIP, total elapsed time 1900s
Processing user MIP start: 319 nodes explored in subMIP, total elapsed time 1905s
Processing user MIP start: 323 nodes explored in subMIP, total elapsed time 1910s
Processing user MIP start: 323 nodes explored in subMIP, total elapsed time 1915s
Processing user MIP start: 329 nodes explored in subMIP, total elapsed time 1921s
Processing user MIP start: 337 nodes explored in subMIP, total elapsed time 1925s
Processing user MIP start: 356 nodes explored in subMIP, total elapsed time 1931s
Processing user MIP start: 367 nodes explored in subMIP, total elapsed time 1935s
Processing user MIP start: 373 nodes explored in subMIP, total elapsed time 1940s
Processing user MIP start: 377 nodes explored in subMIP, total elapsed time 1945s
Processing user MIP start: 377 nodes explored in subMIP, total elapsed time 1950s
Processing user MIP start: 390 nodes explored in subMIP, total elapsed time 1955s
Processing user MIP start: 403 nodes explored in subMIP, total elapsed time 1960s
Processing user MIP start: 404 nodes explored in subMIP, total elapsed time 1965s
Processing user MIP start: 404 nodes explored in subMIP, total elapsed time 1970s
Processing user MIP start: 407 nodes explored in subMIP, total elapsed time 1975s
Processing user MIP start: 430 nodes explored in subMIP, total elapsed time 1980s
Processing user MIP start: 431 nodes explored in subMIP, total elapsed time 1985s
Processing user MIP start: 431 nodes explored in subMIP, total elapsed time 1990s
Processing user MIP start: 438 nodes explored in subMIP, total elapsed time 1995s
Processing user MIP start: 453 nodes explored in subMIP, total elapsed time 2000s
Processing user MIP start: 470 nodes explored in subMIP, total elapsed time 2005s
Processing user MIP start: 485 nodes explored in subMIP, total elapsed time 2010s
Processing user MIP start: 485 nodes explored in subMIP, total elapsed time 2015s
Processing user MIP start: 485 nodes explored in subMIP, total elapsed time 2020s
Loaded user MIP start with objective 416948
Processed MIP start in 2024.85 seconds (5031.35 work units)

Presolve removed 14 rows and 81466 columns
Presolve time: 1.86s
Presolved: 1051191 rows, 619341 columns, 2674283 nonzeros
Variable types: 444139 continuous, 175202 integer (0 binary)

Deterministic concurrent LP optimizer: primal simplex, dual simplex, and barrier
Showing barrier log only...

Root barrier log...

Ordering time: 0.08s

Barrier statistics:
 Dense cols : 4
 AA' NZ     : 1.967e+06
 Factor NZ  : 7.388e+06 (roughly 500 MB of memory)
 Factor Ops : 1.122e+08 (less than 1 second per iteration)
 Threads    : 14

                  Objective                Residual
Iter       Primal          Dual         Primal    Dual     Compl     Time
   0   3.03685792e+08 -2.63554953e+10  1.77e+06 6.47e+01  2.36e+06  2030s
   1   3.00083541e+08 -3.22530105e+10  1.74e+06 6.48e+02  1.94e+06  2030s
   2   1.87521637e+08 -3.61301199e+10  9.37e+05 1.20e+01  9.82e+05  2031s
   3   1.25614138e+08 -3.66047716e+10  7.49e+05 9.69e-06  8.59e+05  2031s
   4   6.77773100e+06 -3.25889180e+10  3.28e+04 3.31e-12  5.65e+04  2032s
   5   2.26707935e+06 -8.75596711e+09  6.30e+03 5.69e-06  9.47e+03  2032s
   6   1.44593721e+06 -2.41617740e+09  1.64e+03 6.80e-06  2.15e+03  2032s
   7   1.19297511e+06 -5.41489113e+08  3.56e+02 1.15e-06  4.16e+02  2033s
   8   1.11054638e+06 -2.62070740e+07  4.60e-12 2.45e-07  1.83e+01  2033s
   9   1.06877074e+06 -4.10858400e+06  2.28e-11 4.26e-08  3.48e+00  2033s
  10   9.61680881e+05 -3.84387327e+06  1.91e-11 4.05e-08  3.23e+00  2034s
  11   8.51521823e+05 -2.21261658e+06  1.80e-11 2.53e-08  2.06e+00  2034s
  12   7.89742558e+05 -1.35132739e+06  1.41e-11 1.76e-08  1.44e+00  2034s
  13   7.30791343e+05 -7.35156247e+05  8.96e-12 1.18e-08  9.84e-01  2035s
  14   6.58876085e+05 -3.26552256e+05  7.92e-12 7.87e-09  6.62e-01  2035s
  15   6.54685554e+05 -1.28704575e+05  7.76e-12 5.91e-09  5.26e-01  2036s
  16   6.02092583e+05  8.50526313e+04  1.14e-11 4.15e-09  3.47e-01  2036s
  17   5.62771742e+05  1.41372707e+04  9.31e-12 3.94e-09  3.68e-01  2037s
  18   5.37887285e+05  2.05924437e+05  6.86e-12 2.30e-09  2.23e-01  2037s
  19   5.05452307e+05  2.64404554e+05  5.55e-12 8.82e-11  1.62e-01  2037s
  20   4.81188337e+05  3.17330203e+05  9.25e-12 6.18e-11  1.10e-01  2038s
  21   4.58334012e+05  3.50393123e+05  2.35e-11 1.04e-10  7.25e-02  2038s
  22   4.49156197e+05  3.73381793e+05  3.89e-11 2.47e-10  5.09e-02  2039s
  23   4.36405599e+05  3.88484250e+05  1.14e-10 1.29e-10  3.22e-02  2039s
  24   4.26776109e+05  3.98480771e+05  3.52e-10 5.55e-11  1.90e-02  2040s
  25   4.22554254e+05  4.03551130e+05  7.20e-10 2.51e-10  1.28e-02  2040s
  26   4.20344040e+05  4.07200842e+05  7.47e-10 1.64e-11  8.83e-03  2040s
  27   4.18072616e+05  4.09111308e+05  7.25e-10 2.84e-10  6.02e-03  2041s
  28   4.16582967e+05  4.09934296e+05  5.39e-10 1.29e-10  4.46e-03  2041s
  29   4.15675259e+05  4.10782613e+05  4.24e-10 2.24e-10  3.29e-03  2042s
  30   4.14109734e+05  4.11377092e+05  2.33e-10 1.60e-10  1.83e-03  2042s
  31   4.13093608e+05  4.12159924e+05  8.74e-10 5.68e-10  6.27e-04  2042s
  32   4.12473554e+05  4.12300080e+05  1.39e-09 3.38e-10  1.16e-04  2043s
  33   4.12424070e+05  4.12340050e+05  7.27e-10 9.09e-13  5.64e-05  2043s
  34   4.12402459e+05  4.12353792e+05  4.44e-10 2.36e-11  3.27e-05  2044s
  35   4.12388889e+05  4.12360611e+05  2.69e-10 6.55e-11  1.90e-05  2044s
  36   4.12381774e+05  4.12363655e+05  1.78e-10 9.09e-13  1.22e-05  2045s
  37   4.12377482e+05  4.12365256e+05  1.24e-10 3.60e-10  8.21e-06  2045s
  38   4.12374292e+05  4.12366139e+05  8.34e-11 7.39e-13  5.47e-06  2046s
  39   4.12371789e+05  4.12366610e+05  5.18e-11 9.09e-13  3.48e-06  2046s
  40   4.12370500e+05  4.12366836e+05  3.55e-11 3.52e-12  2.46e-06  2047s
  41   4.12369409e+05  4.12367055e+05  2.15e-11 2.34e-14  1.58e-06  2047s
  42   4.12369057e+05  4.12367226e+05  1.71e-11 9.09e-13  1.23e-06  2048s
  43   4.12368689e+05  4.12367347e+05  1.25e-11 1.82e-12  9.01e-07  2048s
  44   4.12368300e+05  4.12367462e+05  8.14e-12 1.36e-12  5.63e-07  2049s
  45   4.12368125e+05  4.12367522e+05  5.91e-12 7.93e-10  4.05e-07  2050s
  46   4.12367953e+05  4.12367573e+05  2.55e-11 3.02e-10  2.55e-07  2051s
  47   4.12367869e+05  4.12367606e+05  1.78e-11 2.69e-10  1.76e-07  2051s
  48   4.12367806e+05  4.12367616e+05  2.00e-11 1.82e-10  1.28e-07  2052s
  49   4.12367784e+05  4.12367619e+05  1.97e-11 3.20e-10  1.11e-07  2052s
  50   4.12367743e+05  4.12367635e+05  1.75e-10 9.09e-13  7.27e-08  2053s
  51   4.12367718e+05  4.12367650e+05  3.11e-08 2.56e-08  4.59e-08  2053s
  52   4.12367688e+05  4.12367651e+05  1.86e-08 1.57e-08  2.47e-08  2054s
  53   4.12367658e+05  4.12367656e+05  5.07e-08 5.81e-08  1.11e-09  2055s

Barrier solved model in 53 iterations and 2054.98 seconds (5052.36 work units)
Optimal objective 4.12367658e+05


Root crossover log...

   87957 DPushes remaining with DInf 0.0000000e+00              2056s
    1152 DPushes remaining with DInf 0.0000000e+00              2060s
       0 DPushes remaining with DInf 0.0000000e+00              2063s

  106134 PPushes remaining with PInf 0.0000000e+00              2063s
   51316 PPushes remaining with PInf 0.0000000e+00              2067s
   46509 PPushes remaining with PInf 0.0000000e+00              2070s
   16774 PPushes remaining with PInf 0.0000000e+00              2076s
       0 PPushes remaining with PInf 0.0000000e+00              2078s

  Push phase complete: Pinf 0.0000000e+00, Dinf 3.2296151e-09   2078s


Root simplex log...

Iteration    Objective       Primal Inf.    Dual Inf.      Time
  112413    4.1236766e+05   0.000000e+00   0.000000e+00   2078s
  112413    4.1236766e+05   0.000000e+00   0.000000e+00   2080s
Concurrent spin time: 0.01s

Solved with barrier

Root relaxation: objective 4.123677e+05, 112413 iterations, 52.38 seconds (180.10 work units)
Total elapsed time = 2252.50s
Total elapsed time = 2330.80s
Total elapsed time = 2406.37s
Total elapsed time = 2486.34s

    Nodes    |    Current Node    |     Objective Bounds      |     Work
 Expl Unexpl |  Obj  Depth IntInf | Incumbent    BestBd   Gap | It/Node Time

     0     0 412367.657    0 35468 416947.550 412367.657  1.10%     - 2490s
     0     0 412375.820    0 34504 416947.550 412375.820  1.10%     - 3076s
     0     0 412375.820    0 34251 416947.550 412375.820  1.10%     - 4818s
     0     0 415713.074    0 14869 416947.550 415713.074  0.30%     - 5264s

Cutting planes:
  MIR: 17952

Explored 1 nodes (579744 simplex iterations) in 5264.99 seconds (11295.04 work units)
Thread count was 32 (of 32 available processors)

Solution count 1: 416948 

Optimal solution found (tolerance 8.00e-03)
Best objective 4.169475501049e+05, best bound 4.157130743083e+05, gap 0.2961%

